(declare-fun Constructed_Argument_t () String)
(declare-fun CreateAsClass () Bool)
(declare-fun Constructed_Argument () Real)
(declare-fun ExpandObjSwitcher () Real)
(assert (= Constructed_Argument_t "number"))
(assert CreateAsClass)
(assert (not (= Constructed_Argument 0.0)))
(assert (not (= ExpandObjSwitcher 0.0)))
(assert (not (= ExpandObjSwitcher 1.0)))
(assert (= ExpandObjSwitcher 2.0))
(assert false)
(check-sat)
